param n = 6;
param m = 4;


param f :=
1  5000000
2  2200000	
3  2200000	
4  2200000
;




param co :	1	2	3	4   :=
1  12.64	13.2	13.44	8.72
2  12.64	13.2	12.96	7.36
3  7.36	11.52	11.84	12.64
4  8.08	11.84	8.16	12.64
5  11.52	7.36	8.08	13.44
6  11.92	8.16	7.28	13.2


;


param p :=
1  10
2  10	
3  10	
4  10
; 


param h :=
1	500000
2	700000
3	900000
4	800000
5	1000000
6	600000
;


param ca :=
1  5000000	
2  2000000
3  2000000	
4  2000000
;

